benchmarks/generators/chew-code/formula.cnf
p cnf 24 64
-1 2 11 0
1 -2 11 0
1 2 -11 0
-1 -2 -11 0
-3 11 12 0
3 -11 12 0
3 11 -12 0
-3 -11 -12 0
-4 12 13 0
4 -12 13 0
4 12 -13 0
-4 -12 -13 0
-5 13 14 0
5 -13 14 0
5 13 -14 0
-5 -13 -14 0
-6 14 15 0
6 -14 15 0
6 14 -15 0
-6 -14 -15 0
-7 15 16 0
7 -15 16 0
7 15 -16 0
-7 -15 -16 0
-8 16 17 0
8 -16 17 0
8 16 -17 0
-8 -16 -17 0
-9 10 -17 0
9 -10 -17 0
9 10 17 0
-9 -10 17 0
-3 2 18 0
3 -2 18 0
3 2 -18 0
-3 -2 -18 0
-7 18 19 0
7 -18 19 0
7 18 -19 0
-7 -18 -19 0
1 19 20 0
-1 -19 20 0
-1 19 -20 0
1 -19 -20 0
-10 20 21 0
10 -20 21 0
10 20 -21 0
-10 -20 -21 0
-6 21 22 0
6 -21 22 0
6 21 -22 0
-6 -21 -22 0
-5 22 23 0
5 -22 23 0
5 22 -23 0
-5 -22 -23 0
-4 23 24 0
4 -23 24 0
4 23 -24 0
-4 -23 -24 0
-8 9 -24 0
8 -9 -24 0
8 9 24 0
-8 -9 24 0
