bsat/benchmarks/generators/chew-code/formula.drat
-17 15 7 8 0
17 -15 7 8 0
17 15 -7 8 0
17 15 7 -8 0
-17 -15 -7 8 0
17 -15 -7 -8 0
-17 15 -7 -8 0
-17 -15 7 -8 0
-25 7 8 0
25 -7 8 0
25 7 -8 0
-25 -7 -8 0
-17 -15 -25 8 0
-17 -15 -25 -8 0
-17 15 25 8 0
-17 15 25 -8 0
17 -15 25 8 0
17 -15 25 -8 0
17 15 -25 8 0
17 15 -25 -8 0
-25 17 15 0
25 -17 15 0
25 17 -15 0
-25 -17 -15 0
-17 14 6 25 0
17 -14 6 25 0
17 14 -6 25 0
17 14 6 -25 0
-17 -14 -6 25 0
17 -14 -6 -25 0
-17 14 -6 -25 0
-17 -14 6 -25 0
-26 6 25 0
26 -6 25 0
26 6 -25 0
-26 -6 -25 0
-17 -14 -26 25 0
-17 -14 -26 -25 0
-17 14 26 25 0
-17 14 26 -25 0
17 -14 26 25 0
17 -14 26 -25 0
17 14 -26 25 0
17 14 -26 -25 0
-26 17 14 0
26 -17 14 0
26 17 -14 0
-26 -17 -14 0
-17 13 5 26 0
17 -13 5 26 0
17 13 -5 26 0
17 13 5 -26 0
-17 -13 -5 26 0
17 -13 -5 -26 0
-17 13 -5 -26 0
-17 -13 5 -26 0
-27 5 26 0
27 -5 26 0
27 5 -26 0
-27 -5 -26 0
-17 -13 -27 26 0
-17 -13 -27 -26 0
-17 13 27 26 0
-17 13 27 -26 0
17 -13 27 26 0
17 -13 27 -26 0
17 13 -27 26 0
17 13 -27 -26 0
-27 17 13 0
27 -17 13 0
27 17 -13 0
-27 -17 -13 0
-13 11 3 4 0
13 -11 3 4 0
13 11 -3 4 0
13 11 3 -4 0
-13 -11 -3 4 0
13 -11 -3 -4 0
-13 11 -3 -4 0
-13 -11 3 -4 0
-28 3 4 0
28 -3 4 0
28 3 -4 0
-28 -3 -4 0
-13 -11 -28 4 0
-13 -11 -28 -4 0
-13 11 28 4 0
-13 11 28 -4 0
13 -11 28 4 0
13 -11 28 -4 0
13 11 -28 4 0
13 11 -28 -4 0
-28 13 11 0
28 -13 11 0
28 13 -11 0
-28 -13 -11 0
-27 25 6 5 0
27 -25 6 5 0
27 25 -6 5 0
27 25 6 -5 0
-27 -25 -6 5 0
27 -25 -6 -5 0
-27 25 -6 -5 0
-27 -25 6 -5 0
-29 6 5 0
29 -6 5 0
29 6 -5 0
-29 -6 -5 0
-27 -25 -29 5 0
-27 -25 -29 -5 0
-27 25 29 5 0
-27 25 29 -5 0
27 -25 29 5 0
27 -25 29 -5 0
27 25 -29 5 0
27 25 -29 -5 0
-29 27 25 0
29 -27 25 0
29 27 -25 0
-29 -27 -25 0
-13 1 2 28 0
13 -1 2 28 0
13 1 -2 28 0
13 1 2 -28 0
-13 -1 -2 28 0
13 -1 -2 -28 0
-13 1 -2 -28 0
-13 -1 2 -28 0
-30 2 28 0
30 -2 28 0
30 2 -28 0
-30 -2 -28 0
-13 -1 -30 28 0
-13 -1 -30 -28 0
-13 1 30 28 0
-13 1 30 -28 0
13 -1 30 28 0
13 -1 30 -28 0
13 1 -30 28 0
13 1 -30 -28 0
-30 13 1 0
30 -13 1 0
30 13 -1 0
-30 -13 -1 0
-13 2 28 1 0
13 -2 28 1 0
13 2 -28 1 0
13 2 28 -1 0
-13 -2 -28 1 0
13 -2 -28 -1 0
-13 2 -28 -1 0
-13 -2 28 -1 0
-31 28 1 0
31 -28 1 0
31 28 -1 0
-31 -28 -1 0
-13 -2 -31 1 0
-13 -2 -31 -1 0
-13 2 31 1 0
-13 2 31 -1 0
13 -2 31 1 0
13 -2 31 -1 0
13 2 -31 1 0
13 2 -31 -1 0
-31 13 2 0
31 -13 2 0
31 13 -2 0
-31 -13 -2 0
-31 4 3 1 0
31 -4 3 1 0
31 4 -3 1 0
31 4 3 -1 0
-31 -4 -3 1 0
31 -4 -3 -1 0
-31 4 -3 -1 0
-31 -4 3 -1 0
-32 3 1 0
32 -3 1 0
32 3 -1 0
-32 -3 -1 0
-31 -4 -32 1 0
-31 -4 -32 -1 0
-31 4 32 1 0
-31 4 32 -1 0
31 -4 32 1 0
31 -4 32 -1 0
31 4 -32 1 0
31 4 -32 -1 0
-32 31 4 0
32 -31 4 0
32 31 -4 0
-32 -31 -4 0
-13 4 32 2 0
13 -4 32 2 0
13 4 -32 2 0
13 4 32 -2 0
-13 -4 -32 2 0
13 -4 -32 -2 0
-13 4 -32 -2 0
-13 -4 32 -2 0
-33 32 2 0
33 -32 2 0
33 32 -2 0
-33 -32 -2 0
-13 -4 -33 2 0
-13 -4 -33 -2 0
-13 4 33 2 0
-13 4 33 -2 0
13 -4 33 2 0
13 -4 33 -2 0
13 4 -33 2 0
13 4 -33 -2 0
-33 13 4 0
33 -13 4 0
33 13 -4 0
-33 -13 -4 0
-13 32 2 4 0
13 -32 2 4 0
13 32 -2 4 0
13 32 2 -4 0
-13 -32 -2 4 0
13 -32 -2 -4 0
-13 32 -2 -4 0
-13 -32 2 -4 0
-34 2 4 0
34 -2 4 0
34 2 -4 0
-34 -2 -4 0
-13 -32 -34 4 0
-13 -32 -34 -4 0
-13 32 34 4 0
-13 32 34 -4 0
13 -32 34 4 0
13 -32 34 -4 0
13 32 -34 4 0
13 32 -34 -4 0
-34 13 32 0
34 -13 32 0
34 13 -32 0
-34 -13 -32 0
-13 3 1 34 0
13 -3 1 34 0
13 3 -1 34 0
13 3 1 -34 0
-13 -3 -1 34 0
13 -3 -1 -34 0
-13 3 -1 -34 0
-13 -3 1 -34 0
-35 1 34 0
35 -1 34 0
35 1 -34 0
-35 -1 -34 0
-13 -3 -35 34 0
-13 -3 -35 -34 0
-13 3 35 34 0
-13 3 35 -34 0
13 -3 35 34 0
13 -3 35 -34 0
13 3 -35 34 0
13 3 -35 -34 0
-35 13 3 0
35 -13 3 0
35 13 -3 0
-35 -13 -3 0
-13 1 34 3 0
13 -1 34 3 0
13 1 -34 3 0
13 1 34 -3 0
-13 -1 -34 3 0
13 -1 -34 -3 0
-13 1 -34 -3 0
-13 -1 34 -3 0
-36 34 3 0
36 -34 3 0
36 34 -3 0
-36 -34 -3 0
-13 -1 -36 3 0
-13 -1 -36 -3 0
-13 1 36 3 0
-13 1 36 -3 0
13 -1 36 3 0
13 -1 36 -3 0
13 1 -36 3 0
13 1 -36 -3 0
-36 13 1 0
36 -13 1 0
36 13 -1 0
-36 -13 -1 0
-36 4 2 3 0
36 -4 2 3 0
36 4 -2 3 0
36 4 2 -3 0
-36 -4 -2 3 0
36 -4 -2 -3 0
-36 4 -2 -3 0
-36 -4 2 -3 0
-37 2 3 0
37 -2 3 0
37 2 -3 0
-37 -2 -3 0
-36 -4 -37 3 0
-36 -4 -37 -3 0
-36 4 37 3 0
-36 4 37 -3 0
36 -4 37 3 0
36 -4 37 -3 0
36 4 -37 3 0
36 4 -37 -3 0
-37 36 4 0
37 -36 4 0
37 36 -4 0
-37 -36 -4 0
-13 4 37 1 0
13 -4 37 1 0
13 4 -37 1 0
13 4 37 -1 0
-13 -4 -37 1 0
13 -4 -37 -1 0
-13 4 -37 -1 0
-13 -4 37 -1 0
-38 37 1 0
38 -37 1 0
38 37 -1 0
-38 -37 -1 0
-13 -4 -38 1 0
-13 -4 -38 -1 0
-13 4 38 1 0
-13 4 38 -1 0
13 -4 38 1 0
13 -4 38 -1 0
13 4 -38 1 0
13 4 -38 -1 0
-38 13 4 0
38 -13 4 0
38 13 -4 0
-38 -13 -4 0
-13 37 1 4 0
13 -37 1 4 0
13 37 -1 4 0
13 37 1 -4 0
-13 -37 -1 4 0
13 -37 -1 -4 0
-13 37 -1 -4 0
-13 -37 1 -4 0
-39 1 4 0
39 -1 4 0
39 1 -4 0
-39 -1 -4 0
-13 -37 -39 4 0
-13 -37 -39 -4 0
-13 37 39 4 0
-13 37 39 -4 0
13 -37 39 4 0
13 -37 39 -4 0
13 37 -39 4 0
13 37 -39 -4 0
-39 13 37 0
39 -13 37 0
39 13 -37 0
-39 -13 -37 0
-27 5 6 25 0
27 -5 6 25 0
27 5 -6 25 0
27 5 6 -25 0
-27 -5 -6 25 0
27 -5 -6 -25 0
-27 5 -6 -25 0
-27 -5 6 -25 0
-40 6 25 0
40 -6 25 0
40 6 -25 0
-40 -6 -25 0
-27 -5 -40 25 0
-27 -5 -40 -25 0
-27 5 40 25 0
-27 5 40 -25 0
27 -5 40 25 0
27 -5 40 -25 0
27 5 -40 25 0
27 5 -40 -25 0
-40 27 5 0
40 -27 5 0
40 27 -5 0
-40 -27 -5 0
-27 6 25 5 0
27 -6 25 5 0
27 6 -25 5 0
27 6 25 -5 0
-27 -6 -25 5 0
27 -6 -25 -5 0
-27 6 -25 -5 0
-27 -6 25 -5 0
-41 25 5 0
41 -25 5 0
41 25 -5 0
-41 -25 -5 0
-27 -6 -41 5 0
-27 -6 -41 -5 0
-27 6 41 5 0
-27 6 41 -5 0
27 -6 41 5 0
27 -6 41 -5 0
27 6 -41 5 0
27 6 -41 -5 0
-41 27 6 0
41 -27 6 0
41 27 -6 0
-41 -27 -6 0
-41 7 8 5 0
41 -7 8 5 0
41 7 -8 5 0
41 7 8 -5 0
-41 -7 -8 5 0
41 -7 -8 -5 0
-41 7 -8 -5 0
-41 -7 8 -5 0
-42 8 5 0
42 -8 5 0
42 8 -5 0
-42 -8 -5 0
-41 -7 -42 5 0
-41 -7 -42 -5 0
-41 7 42 5 0
-41 7 42 -5 0
41 -7 42 5 0
41 -7 42 -5 0
41 7 -42 5 0
41 7 -42 -5 0
-42 41 7 0
42 -41 7 0
42 41 -7 0
-42 -41 -7 0
-27 7 42 6 0
27 -7 42 6 0
27 7 -42 6 0
27 7 42 -6 0
-27 -7 -42 6 0
27 -7 -42 -6 0
-27 7 -42 -6 0
-27 -7 42 -6 0
-43 42 6 0
43 -42 6 0
43 42 -6 0
-43 -42 -6 0
-27 -7 -43 6 0
-27 -7 -43 -6 0
-27 7 43 6 0
-27 7 43 -6 0
27 -7 43 6 0
27 -7 43 -6 0
27 7 -43 6 0
27 7 -43 -6 0
-43 27 7 0
43 -27 7 0
43 27 -7 0
-43 -27 -7 0
-27 42 6 7 0
27 -42 6 7 0
27 42 -6 7 0
27 42 6 -7 0
-27 -42 -6 7 0
27 -42 -6 -7 0
-27 42 -6 -7 0
-27 -42 6 -7 0
-44 6 7 0
44 -6 7 0
44 6 -7 0
-44 -6 -7 0
-27 -42 -44 7 0
-27 -42 -44 -7 0
-27 42 44 7 0
-27 42 44 -7 0
27 -42 44 7 0
27 -42 44 -7 0
27 42 -44 7 0
27 42 -44 -7 0
-44 27 42 0
44 -27 42 0
44 27 -42 0
-44 -27 -42 0
-27 8 5 44 0
27 -8 5 44 0
27 8 -5 44 0
27 8 5 -44 0
-27 -8 -5 44 0
27 -8 -5 -44 0
-27 8 -5 -44 0
-27 -8 5 -44 0
-45 5 44 0
45 -5 44 0
45 5 -44 0
-45 -5 -44 0
-27 -8 -45 44 0
-27 -8 -45 -44 0
-27 8 45 44 0
-27 8 45 -44 0
27 -8 45 44 0
27 -8 45 -44 0
27 8 -45 44 0
27 8 -45 -44 0
-45 27 8 0
45 -27 8 0
45 27 -8 0
-45 -27 -8 0
-17 8 45 13 0
17 -8 45 13 0
17 8 -45 13 0
17 8 45 -13 0
-17 -8 -45 13 0
17 -8 -45 -13 0
-17 8 -45 -13 0
-17 -8 45 -13 0
-46 45 13 0
46 -45 13 0
46 45 -13 0
-46 -45 -13 0
-17 -8 -46 13 0
-17 -8 -46 -13 0
-17 8 46 13 0
-17 8 46 -13 0
17 -8 46 13 0
17 -8 46 -13 0
17 8 -46 13 0
17 8 -46 -13 0
-46 17 8 0
46 -17 8 0
46 17 -8 0
-46 -17 -8 0
10 8 46 9 0
-10 -8 46 9 0
-10 8 -46 9 0
-10 8 46 -9 0
10 -8 -46 9 0
-10 -8 -46 -9 0
10 8 -46 -9 0
10 -8 46 -9 0
-47 46 9 0
47 -46 9 0
47 46 -9 0
-47 -46 -9 0
10 -8 -47 9 0
10 -8 -47 -9 0
10 8 47 9 0
10 8 47 -9 0
-10 -8 47 9 0
-10 -8 47 -9 0
-10 8 -47 9 0
-10 8 -47 -9 0
-47 -10 8 0
47 10 8 0
47 -10 -8 0
-47 10 -8 0
-47 13 45 9 0
47 -13 45 9 0
47 13 -45 9 0
47 13 45 -9 0
-47 -13 -45 9 0
47 -13 -45 -9 0
-47 13 -45 -9 0
-47 -13 45 -9 0
-48 45 9 0
48 -45 9 0
48 45 -9 0
-48 -45 -9 0
-47 -13 -48 9 0
-47 -13 -48 -9 0
-47 13 48 9 0
-47 13 48 -9 0
47 -13 48 9 0
47 -13 48 -9 0
47 13 -48 9 0
47 13 -48 -9 0
-48 47 13 0
48 -47 13 0
48 47 -13 0
-48 -47 -13 0
-48 44 5 9 0
48 -44 5 9 0
48 44 -5 9 0
48 44 5 -9 0
-48 -44 -5 9 0
48 -44 -5 -9 0
-48 44 -5 -9 0
-48 -44 5 -9 0
-49 5 9 0
49 -5 9 0
49 5 -9 0
-49 -5 -9 0
-48 -44 -49 9 0
-48 -44 -49 -9 0
-48 44 49 9 0
-48 44 49 -9 0
48 -44 49 9 0
48 -44 49 -9 0
48 44 -49 9 0
48 44 -49 -9 0
-49 48 44 0
49 -48 44 0
49 48 -44 0
-49 -48 -44 0
8 13 48 10 0
-8 -13 48 10 0
-8 13 -48 10 0
-8 13 48 -10 0
8 -13 -48 10 0
-8 -13 -48 -10 0
8 13 -48 -10 0
8 -13 48 -10 0
-50 48 10 0
50 -48 10 0
50 48 -10 0
-50 -48 -10 0
8 -13 -50 10 0
8 -13 -50 -10 0
8 13 50 10 0
8 13 50 -10 0
-8 -13 50 10 0
-8 -13 50 -10 0
-8 13 -50 10 0
-8 13 -50 -10 0
-50 -8 13 0
50 8 13 0
50 -8 -13 0
-50 8 -13 0
-50 49 44 10 0
50 -49 44 10 0
50 49 -44 10 0
50 49 44 -10 0
-50 -49 -44 10 0
50 -49 -44 -10 0
-50 49 -44 -10 0
-50 -49 44 -10 0
-51 44 10 0
51 -44 10 0
51 44 -10 0
-51 -44 -10 0
-50 -49 -51 10 0
-50 -49 -51 -10 0
-50 49 51 10 0
-50 49 51 -10 0
50 -49 51 10 0
50 -49 51 -10 0
50 49 -51 10 0
50 49 -51 -10 0
-51 50 49 0
51 -50 49 0
51 50 -49 0
-51 -50 -49 0
-51 6 7 10 0
51 -6 7 10 0
51 6 -7 10 0
51 6 7 -10 0
-51 -6 -7 10 0
51 -6 -7 -10 0
-51 6 -7 -10 0
-51 -6 7 -10 0
-52 7 10 0
52 -7 10 0
52 7 -10 0
-52 -7 -10 0
-51 -6 -52 10 0
-51 -6 -52 -10 0
-51 6 52 10 0
-51 6 52 -10 0
51 -6 52 10 0
51 -6 52 -10 0
51 6 -52 10 0
51 6 -52 -10 0
-52 51 6 0
52 -51 6 0
52 51 -6 0
-52 -51 -6 0
-51 7 10 6 0
51 -7 10 6 0
51 7 -10 6 0
51 7 10 -6 0
-51 -7 -10 6 0
51 -7 -10 -6 0
-51 7 -10 -6 0
-51 -7 10 -6 0
-53 10 6 0
53 -10 6 0
53 10 -6 0
-53 -10 -6 0
-51 -7 -53 6 0
-51 -7 -53 -6 0
-51 7 53 6 0
-51 7 53 -6 0
51 -7 53 6 0
51 -7 53 -6 0
51 7 -53 6 0
51 7 -53 -6 0
-53 51 7 0
53 -51 7 0
53 51 -7 0
-53 -51 -7 0
-50 7 53 49 0
50 -7 53 49 0
50 7 -53 49 0
50 7 53 -49 0
-50 -7 -53 49 0
50 -7 -53 -49 0
-50 7 -53 -49 0
-50 -7 53 -49 0
-54 53 49 0
54 -53 49 0
54 53 -49 0
-54 -53 -49 0
-50 -7 -54 49 0
-50 -7 -54 -49 0
-50 7 54 49 0
-50 7 54 -49 0
50 -7 54 49 0
50 -7 54 -49 0
50 7 -54 49 0
50 7 -54 -49 0
-54 50 7 0
54 -50 7 0
54 50 -7 0
-54 -50 -7 0
8 7 54 13 0
-8 -7 54 13 0
-8 7 -54 13 0
-8 7 54 -13 0
8 -7 -54 13 0
-8 -7 -54 -13 0
8 7 -54 -13 0
8 -7 54 -13 0
-55 54 13 0
55 -54 13 0
55 54 -13 0
-55 -54 -13 0
8 -7 -55 13 0
8 -7 -55 -13 0
8 7 55 13 0
8 7 55 -13 0
-8 -7 55 13 0
-8 -7 55 -13 0
-8 7 -55 13 0
-8 7 -55 -13 0
-55 -8 7 0
55 8 7 0
55 -8 -7 0
-55 8 -7 0
-13 4 1 37 0
13 -4 1 37 0
13 4 -1 37 0
13 4 1 -37 0
-13 -4 -1 37 0
13 -4 -1 -37 0
-13 4 -1 -37 0
-13 -4 1 -37 0
-56 1 37 0
56 -1 37 0
56 1 -37 0
-56 -1 -37 0
-13 -4 -56 37 0
-13 -4 -56 -37 0
-13 4 56 37 0
-13 4 56 -37 0
13 -4 56 37 0
13 -4 56 -37 0
13 4 -56 37 0
13 4 -56 -37 0
-56 13 4 0
56 -13 4 0
56 13 -4 0
-56 -13 -4 0
-55 4 56 54 0
55 -4 56 54 0
55 4 -56 54 0
55 4 56 -54 0
-55 -4 -56 54 0
55 -4 -56 -54 0
-55 4 -56 -54 0
-55 -4 56 -54 0
-57 56 54 0
57 -56 54 0
57 56 -54 0
-57 -56 -54 0
-55 -4 -57 54 0
-55 -4 -57 -54 0
-55 4 57 54 0
-55 4 57 -54 0
55 -4 57 54 0
55 -4 57 -54 0
55 4 -57 54 0
55 4 -57 -54 0
-57 55 4 0
57 -55 4 0
57 55 -4 0
-57 -55 -4 0
-55 56 54 4 0
55 -56 54 4 0
55 56 -54 4 0
55 56 54 -4 0
-55 -56 -54 4 0
55 -56 -54 -4 0
-55 56 -54 -4 0
-55 -56 54 -4 0
-58 54 4 0
58 -54 4 0
58 54 -4 0
-58 -54 -4 0
-55 -56 -58 4 0
-55 -56 -58 -4 0
-55 56 58 4 0
-55 56 58 -4 0
55 -56 58 4 0
55 -56 58 -4 0
55 56 -58 4 0
55 56 -58 -4 0
-58 55 56 0
58 -55 56 0
58 55 -56 0
-58 -55 -56 0
-58 53 49 4 0
58 -53 49 4 0
58 53 -49 4 0
58 53 49 -4 0
-58 -53 -49 4 0
58 -53 -49 -4 0
-58 53 -49 -4 0
-58 -53 49 -4 0
-59 49 4 0
59 -49 4 0
59 49 -4 0
-59 -49 -4 0
-58 -53 -59 4 0
-58 -53 -59 -4 0
-58 53 59 4 0
-58 53 59 -4 0
58 -53 59 4 0
58 -53 59 -4 0
58 53 -59 4 0
58 53 -59 -4 0
-59 58 53 0
59 -58 53 0
59 58 -53 0
-59 -58 -53 0
-59 5 9 4 0
59 -5 9 4 0
59 5 -9 4 0
59 5 9 -4 0
-59 -5 -9 4 0
59 -5 -9 -4 0
-59 5 -9 -4 0
-59 -5 9 -4 0
-60 9 4 0
60 -9 4 0
60 9 -4 0
-60 -9 -4 0
-59 -5 -60 4 0
-59 -5 -60 -4 0
-59 5 60 4 0
-59 5 60 -4 0
59 -5 60 4 0
59 -5 60 -4 0
59 5 -60 4 0
59 5 -60 -4 0
-60 59 5 0
60 -59 5 0
60 59 -5 0
-60 -59 -5 0
-59 9 4 5 0
59 -9 4 5 0
59 9 -4 5 0
59 9 4 -5 0
-59 -9 -4 5 0
59 -9 -4 -5 0
-59 9 -4 -5 0
-59 -9 4 -5 0
-61 4 5 0
61 -4 5 0
61 4 -5 0
-61 -4 -5 0
-59 -9 -61 5 0
-59 -9 -61 -5 0
-59 9 61 5 0
-59 9 61 -5 0
59 -9 61 5 0
59 -9 61 -5 0
59 9 -61 5 0
59 9 -61 -5 0
-61 59 9 0
61 -59 9 0
61 59 -9 0
-61 -59 -9 0
-58 9 61 53 0
58 -9 61 53 0
58 9 -61 53 0
58 9 61 -53 0
-58 -9 -61 53 0
58 -9 -61 -53 0
-58 9 -61 -53 0
-58 -9 61 -53 0
-62 61 53 0
62 -61 53 0
62 61 -53 0
-62 -61 -53 0
-58 -9 -62 53 0
-58 -9 -62 -53 0
-58 9 62 53 0
-58 9 62 -53 0
58 -9 62 53 0
58 -9 62 -53 0
58 9 -62 53 0
58 9 -62 -53 0
-62 58 9 0
62 -58 9 0
62 58 -9 0
-62 -58 -9 0
-55 9 62 56 0
55 -9 62 56 0
55 9 -62 56 0
55 9 62 -56 0
-55 -9 -62 56 0
55 -9 -62 -56 0
-55 9 -62 -56 0
-55 -9 62 -56 0
-63 62 56 0
63 -62 56 0
63 62 -56 0
-63 -62 -56 0
-55 -9 -63 56 0
-55 -9 -63 -56 0
-55 9 63 56 0
-55 9 63 -56 0
55 -9 63 56 0
55 -9 63 -56 0
55 9 -63 56 0
55 9 -63 -56 0
-63 55 9 0
63 -55 9 0
63 55 -9 0
-63 -55 -9 0
-55 62 56 9 0
55 -62 56 9 0
55 62 -56 9 0
55 62 56 -9 0
-55 -62 -56 9 0
55 -62 -56 -9 0
-55 62 -56 -9 0
-55 -62 56 -9 0
-64 56 9 0
64 -56 9 0
64 56 -9 0
-64 -56 -9 0
-55 -62 -64 9 0
-55 -62 -64 -9 0
-55 62 64 9 0
-55 62 64 -9 0
55 -62 64 9 0
55 -62 64 -9 0
55 62 -64 9 0
55 62 -64 -9 0
-64 55 62 0
64 -55 62 0
64 55 -62 0
-64 -55 -62 0
-64 37 1 9 0
64 -37 1 9 0
64 37 -1 9 0
64 37 1 -9 0
-64 -37 -1 9 0
64 -37 -1 -9 0
-64 37 -1 -9 0
-64 -37 1 -9 0
-65 1 9 0
65 -1 9 0
65 1 -9 0
-65 -1 -9 0
-64 -37 -65 9 0
-64 -37 -65 -9 0
-64 37 65 9 0
-64 37 65 -9 0
64 -37 65 9 0
64 -37 65 -9 0
64 37 -65 9 0
64 37 -65 -9 0
-65 64 37 0
65 -64 37 0
65 64 -37 0
-65 -64 -37 0
8 62 64 7 0
-8 -62 64 7 0
-8 62 -64 7 0
-8 62 64 -7 0
8 -62 -64 7 0
-8 -62 -64 -7 0
8 62 -64 -7 0
8 -62 64 -7 0
-66 64 7 0
66 -64 7 0
66 64 -7 0
-66 -64 -7 0
8 -62 -66 7 0
8 -62 -66 -7 0
8 62 66 7 0
8 62 66 -7 0
-8 -62 66 7 0
-8 -62 66 -7 0
-8 62 -66 7 0
-8 62 -66 -7 0
-66 -8 62 0
66 8 62 0
66 -8 -62 0
-66 8 -62 0
-66 37 65 7 0
66 -37 65 7 0
66 37 -65 7 0
66 37 65 -7 0
-66 -37 -65 7 0
66 -37 -65 -7 0
-66 37 -65 -7 0
-66 -37 65 -7 0
-67 65 7 0
67 -65 7 0
67 65 -7 0
-67 -65 -7 0
-66 -37 -67 7 0
-66 -37 -67 -7 0
-66 37 67 7 0
-66 37 67 -7 0
66 -37 67 7 0
66 -37 67 -7 0
66 37 -67 7 0
66 37 -67 -7 0
-67 66 37 0
67 -66 37 0
67 66 -37 0
-67 -66 -37 0
-67 1 9 7 0
67 -1 9 7 0
67 1 -9 7 0
67 1 9 -7 0
-67 -1 -9 7 0
67 -1 -9 -7 0
-67 1 -9 -7 0
-67 -1 9 -7 0
-68 9 7 0
68 -9 7 0
68 9 -7 0
-68 -9 -7 0
-67 -1 -68 7 0
-67 -1 -68 -7 0
-67 1 68 7 0
-67 1 68 -7 0
67 -1 68 7 0
67 -1 68 -7 0
67 1 -68 7 0
67 1 -68 -7 0
-68 67 1 0
68 -67 1 0
68 67 -1 0
-68 -67 -1 0
-67 9 7 1 0
67 -9 7 1 0
67 9 -7 1 0
67 9 7 -1 0
-67 -9 -7 1 0
67 -9 -7 -1 0
-67 9 -7 -1 0
-67 -9 7 -1 0
-69 7 1 0
69 -7 1 0
69 7 -1 0
-69 -7 -1 0
-67 -9 -69 1 0
-67 -9 -69 -1 0
-67 9 69 1 0
-67 9 69 -1 0
67 -9 69 1 0
67 -9 69 -1 0
67 9 -69 1 0
67 9 -69 -1 0
-69 67 9 0
69 -67 9 0
69 67 -9 0
-69 -67 -9 0
-66 9 69 37 0
66 -9 69 37 0
66 9 -69 37 0
66 9 69 -37 0
-66 -9 -69 37 0
66 -9 -69 -37 0
-66 9 -69 -37 0
-66 -9 69 -37 0
-70 69 37 0
70 -69 37 0
70 69 -37 0
-70 -69 -37 0
-66 -9 -70 37 0
-66 -9 -70 -37 0
-66 9 70 37 0
-66 9 70 -37 0
66 -9 70 37 0
66 -9 70 -37 0
66 9 -70 37 0
66 9 -70 -37 0
-70 66 9 0
70 -66 9 0
70 66 -9 0
-70 -66 -9 0
8 9 70 62 0
-8 -9 70 62 0
-8 9 -70 62 0
-8 9 70 -62 0
8 -9 -70 62 0
-8 -9 -70 -62 0
8 9 -70 -62 0
8 -9 70 -62 0
-71 70 62 0
71 -70 62 0
71 70 -62 0
-71 -70 -62 0
8 -9 -71 62 0
8 -9 -71 -62 0
8 9 71 62 0
8 9 71 -62 0
-8 -9 71 62 0
-8 -9 71 -62 0
-8 9 -71 62 0
-8 9 -71 -62 0
-71 -8 9 0
71 8 9 0
71 -8 -9 0
-71 8 -9 0
-70 1 7 37 0
70 -1 7 37 0
70 1 -7 37 0
70 1 7 -37 0
-70 -1 -7 37 0
70 -1 -7 -37 0
-70 1 -7 -37 0
-70 -1 7 -37 0
-72 7 37 0
72 -7 37 0
72 7 -37 0
-72 -7 -37 0
-70 -1 -72 37 0
-70 -1 -72 -37 0
-70 1 72 37 0
-70 1 72 -37 0
70 -1 72 37 0
70 -1 72 -37 0
70 1 -72 37 0
70 1 -72 -37 0
-72 70 1 0
72 -70 1 0
72 70 -1 0
-72 -70 -1 0
-62 10 6 61 0
62 -10 6 61 0
62 10 -6 61 0
62 10 6 -61 0
-62 -10 -6 61 0
62 -10 -6 -61 0
-62 10 -6 -61 0
-62 -10 6 -61 0
-73 6 61 0
73 -6 61 0
73 6 -61 0
-73 -6 -61 0
-62 -10 -73 61 0
-62 -10 -73 -61 0
-62 10 73 61 0
-62 10 73 -61 0
62 -10 73 61 0
62 -10 73 -61 0
62 10 -73 61 0
62 10 -73 -61 0
-73 62 10 0
73 -62 10 0
73 62 -10 0
-73 -62 -10 0
-71 73 10 70 0
71 -73 10 70 0
71 73 -10 70 0
71 73 10 -70 0
-71 -73 -10 70 0
71 -73 -10 -70 0
-71 73 -10 -70 0
-71 -73 10 -70 0
-74 10 70 0
74 -10 70 0
74 10 -70 0
-74 -10 -70 0
-71 -73 -74 70 0
-71 -73 -74 -70 0
-71 73 74 70 0
-71 73 74 -70 0
71 -73 74 70 0
71 -73 74 -70 0
71 73 -74 70 0
71 73 -74 -70 0
-74 71 73 0
74 -71 73 0
74 71 -73 0
-74 -71 -73 0
-71 61 6 74 0
71 -61 6 74 0
71 61 -6 74 0
71 61 6 -74 0
-71 -61 -6 74 0
71 -61 -6 -74 0
-71 61 -6 -74 0
-71 -61 6 -74 0
-75 6 74 0
75 -6 74 0
75 6 -74 0
-75 -6 -74 0
-71 -61 -75 74 0
-71 -61 -75 -74 0
-71 61 75 74 0
-71 61 75 -74 0
71 -61 75 74 0
71 -61 75 -74 0
71 61 -75 74 0
71 61 -75 -74 0
-75 71 61 0
75 -71 61 0
75 71 -61 0
-75 -71 -61 0
-71 4 5 75 0
71 -4 5 75 0
71 4 -5 75 0
71 4 5 -75 0
-71 -4 -5 75 0
71 -4 -5 -75 0
-71 4 -5 -75 0
-71 -4 5 -75 0
-76 5 75 0
76 -5 75 0
76 5 -75 0
-76 -5 -75 0
-71 -4 -76 75 0
-71 -4 -76 -75 0
-71 4 76 75 0
-71 4 76 -75 0
71 -4 76 75 0
71 -4 76 -75 0
71 4 -76 75 0
71 4 -76 -75 0
-76 71 4 0
76 -71 4 0
76 71 -4 0
-76 -71 -4 0
-3 -37 18 0
-3 37 -18 0
3 37 -18 0
3 37 -18 0
-37 18 0
37 -18 0
-37 -72 19 0
-37 -72 19 0
37 72 -19 0
37 72 -19 0
72 -19 0
-72 19 0
-72 70 20 0
-72 70 20 0
72 -70 -20 0
72 -70 -20 0
70 20 0
-70 -20 0
-70 74 21 0
-70 74 21 0
70 -74 -21 0
70 -74 -21 0
74 21 0
-74 -21 0
-74 75 22 0
-74 75 22 0
74 -75 -22 0
74 -75 -22 0
75 22 0
-75 -22 0
-75 76 23 0
-75 76 23 0
75 -76 -23 0
75 -76 -23 0
76 23 0
-76 -23 0
-76 71 24 0
-76 71 24 0
76 -71 -24 0
76 -71 -24 0
71 24 0
-71 -24 0
9 8 0
9 -8 0
-9 8 0
-9 -8 0
-9 0
9 0
0
